20	5
0	9	1	6	9	7	4	8	5	2	3
1	3	12	11	15
2	2	10	11
3	2	19	16
4	5	19	12	14	16	15
5	7	15	20	17	19	14	18	16
6	6	20	15	17	16	19	18
7	4	18	20	15	11
8	1	19
9	2	17	11
10	3	13	19	16
11	2	16	14
12	2	20	17
13	3	12	15	14
14	1	21
15	1	21
16	1	21
17	1	21
18	1	21
19	1	21
20	1	21
21	0
0	0	0	0	0	0	0
1	2	0	2	0	0	2
2	7	2	4	4	5	1
3	2	5	4	0	1	2
4	10	3	5	1	5	5
5	1	0	0	0	1	1
6	3	2	0	0	2	5
7	10	3	2	1	4	2
8	5	3	3	3	0	0
9	10	0	4	4	0	4
10	10	3	2	5	4	4
11	9	1	1	5	2	4
12	9	2	0	0	5	3
13	8	2	2	3	2	4
14	4	0	1	1	3	0
15	5	3	4	0	5	2
16	1	2	2	5	4	3
17	1	0	1	0	4	4
18	10	3	0	0	0	1
19	7	3	5	3	4	4
20	2	0	1	0	5	3
21	0	0	0	0	0	0
7	8	8	8	9
